Route #1: 0 120 105 105 106 107 99 101 95 87 111 81 117 113 83 90 114 115 94 93 92 0
Route #2: 0 119 88 86 89 85 112 84 18 108 109 97 110 98 116 100 100 103 104 96 91 0
Route #3: 0 102 118 8 12 13 14 15 10 9 7 6 5 4 3 1 2 0
Route #4: 0 11 16 17 20 21 26 23 19 25 22 24 27 28 31 30 33 34 36 35 32 29 0
Route #5: 0 40 43 45 48 51 50 49 46 47 44 41 42 39 38 37 0
Route #6: 0 52 54 57 59 65 61 62 64 66 63 60 56 58 55 53 71 0
Route #7: 0 73 76 68 77 79 80 78 74 72 75 70 69 67 82 0
Cost 1150:
